(set-logic ALL)
(declare-const BAV1 Bool)
(declare-const GEN1 (_ BitVec 3))
(declare-fun x2 () (_ BitVec 3))
(declare-fun x1 () (_ BitVec 3))
(declare-fun x0 () (_ BitVec 3))
(assert (not (bvult (bvudiv (bvudiv (bvudiv x0 x0) x1) x2) x1)))
(assert (= GEN1 x2))
(assert (= BAV1 (= GEN1 x2)))
(check-sat)
(get-model)